70 710
1 36 29 13 70 35 31 69 38 59 22 66 63 57 15 24 19 7 2 4 18 42 41 43 17 9 40 61 34 21 12 33 60 51 56 65 64 11 67 48 54 62 39 25 45 46 27 68 44 30 20 14 28 49 55 26 8 3 32 6 53 5 52 10 50 58 37 47 16 23 
